17	4	3
13	10	9	13	36	47	22	
0	0	0	0	0	10	10	3	1	3	7	3	2	3	4
2	1	0	0	0	6	3	2	2	4	5	3	5	10	11
3	0	4	0	0	10	4	10	3	1	10	3	7	9	11
10	0	0	0	8	4	4	9	10	9	5	3	6	8	10
5	0	0	0	1	5	3	8	1	3	1	3	6	7	16
200	0	0	0	6	9	2	10	1	2	3	1	17
50	5	0	0	0	7	8	6	8	9	9	2	13	14
75	3	0	0	0	3	8	3	2	1	4	3	12	15	17
175	0	0	0	8	1	4	7	10	4	6	2	15	17
75	0	0	8	0	5	8	8	2	9	1	2	13	17
100	8	0	0	0	3	7	2	3	7	4	1	17
250	0	0	0	5	6	4	2	1	2	1	2	13	17
9	7	0	0	0	10	4	8	2	6	9	1	17
3	10	0	0	0	5	6	2	2	6	6	1	17
7	0	0	9	0	7	10	3	5	2	1	1	17
2	0	0	3	0	5	4	8	7	7	5	1	17
0	0	0	0	0	1	2	8	2	2	9	0
